400, 31999400
14, 160401
731, 160402
681, 160403
249, 160404
116, 160405
991, 160406
322, 160407
97, 160408
603, 160409
243, 160410
687, 160411
50, 160412
438, 160413
858, 160414
533, 160415
599, 160416
804, 160417
920, 160418
963, 160419
125, 160420
585, 160421
89, 160422
183, 160423
578, 160424
601, 160425
901, 160426
572, 160427
535, 160428
494, 160429
551, 160430
38, 160431
679, 160432
476, 160433
144, 160434
971, 160435
981, 160436
699, 160437
576, 160438
211, 160439
497, 160440
916, 160441
662, 160442
601, 160443
971, 160444
683, 160445
402, 160446
96, 160447
862, 160448
859, 160449
345, 160450
903, 160451
710, 160452
269, 160453
689, 160454
381, 160455
586, 160456
176, 160457
432, 160458
492, 160459
698, 160460
985, 160461
352, 160462
801, 160463
289, 160464
221, 160465
382, 160466
866, 160467
451, 160468
170, 160469
502, 160470
470, 160471
784, 160472
425, 160473
168, 160474
152, 160475
695, 160476
838, 160477
126, 160478
388, 160479
371, 160480
734, 160481
35, 160482
848, 160483
649, 160484
455, 160485
276, 160486
308, 160487
471, 160488
635, 160489
914, 160490
602, 160491
902, 160492
332, 160493
390, 160494
342, 160495
841, 160496
617, 160497
892, 160498
862, 160499
75, 160500
616, 160501
368, 160502
66, 160503
252, 160504
177, 160505
755, 160506
388, 160507
349, 160508
521, 160509
414, 160510
153, 160511
838, 160512
619, 160513
764, 160514
622, 160515
238, 160516
680, 160517
900, 160518
180, 160519
155, 160520
120, 160521
629, 160522
508, 160523
813, 160524
183, 160525
264, 160526
395, 160527
215, 160528
416, 160529
825, 160530
871, 160531
278, 160532
700, 160533
838, 160534
975, 160535
439, 160536
596, 160537
709, 160538
358, 160539
76, 160540
770, 160541
154, 160542
279, 160543
472, 160544
108, 160545
862, 160546
818, 160547
726, 160548
17, 160549
224, 160550
670, 160551
469, 160552
473, 160553
400, 160554
652, 160555
38, 160556
576, 160557
438, 160558
586, 160559
204, 160560
635, 160561
239, 160562
533, 160563
106, 160564
728, 160565
528, 160566
389, 160567
544, 160568
970, 160569
488, 160570
620, 160571
734, 160572
427, 160573
650, 160574
431, 160575
239, 160576
528, 160577
48, 160578
915, 160579
271, 160580
480, 160581
985, 160582
736, 160583
93, 160584
116, 160585
627, 160586
273, 160587
689, 160588
256, 160589
776, 160590
698, 160591
230, 160592
48, 160593
613, 160594
496, 160595
649, 160596
564, 160597
862, 160598
4, 160599
823, 160600
499, 160601
963, 160602
488, 160603
682, 160604
195, 160605
854, 160606
71, 160607
285, 160608
895, 160609
58, 160610
777, 160611
987, 160612
519, 160613
781, 160614
964, 160615
995, 160616
915, 160617
342, 160618
163, 160619
278, 160620
600, 160621
471, 160622
267, 160623
167, 160624
657, 160625
411, 160626
904, 160627
473, 160628
870, 160629
81, 160630
460, 160631
836, 160632
608, 160633
118, 160634
360, 160635
769, 160636
842, 160637
807, 160638
921, 160639
608, 160640
833, 160641
772, 160642
835, 160643
776, 160644
301, 160645
709, 160646
49, 160647
839, 160648
701, 160649
249, 160650
51, 160651
45, 160652
974, 160653
585, 160654
381, 160655
470, 160656
300, 160657
425, 160658
262, 160659
332, 160660
559, 160661
863, 160662
750, 160663
608, 160664
223, 160665
770, 160666
142, 160667
185, 160668
440, 160669
339, 160670
451, 160671
250, 160672
647, 160673
607, 160674
708, 160675
792, 160676
618, 160677
386, 160678
775, 160679
10, 160680
490, 160681
364, 160682
175, 160683
143, 160684
732, 160685
920, 160686
392, 160687
930, 160688
947, 160689
272, 160690
281, 160691
17, 160692
96, 160693
922, 160694
72, 160695
809, 160696
506, 160697
381, 160698
401, 160699
275, 160700
741, 160701
340, 160702
167, 160703
850, 160704
415, 160705
169, 160706
369, 160707
746, 160708
702, 160709
939, 160710
326, 160711
138, 160712
187, 160713
880, 160714
608, 160715
674, 160716
985, 160717
379, 160718
4, 160719
934, 160720
837, 160721
206, 160722
976, 160723
888, 160724
527, 160725
744, 160726
884, 160727
97, 160728
304, 160729
17, 160730
905, 160731
272, 160732
594, 160733
577, 160734
388, 160735
416, 160736
242, 160737
476, 160738
835, 160739
654, 160740
9, 160741
23, 160742
734, 160743
249, 160744
790, 160745
923, 160746
191, 160747
760, 160748
941, 160749
713, 160750
346, 160751
327, 160752
242, 160753
37, 160754
453, 160755
257, 160756
262, 160757
715, 160758
225, 160759
950, 160760
817, 160761
980, 160762
70, 160763
575, 160764
85, 160765
249, 160766
538, 160767
301, 160768
473, 160769
782, 160770
106, 160771
213, 160772
507, 160773
880, 160774
15, 160775
166, 160776
700, 160777
359, 160778
435, 160779
456, 160780
744, 160781
604, 160782
641, 160783
910, 160784
491, 160785
172, 160786
951, 160787
389, 160788
628, 160789
682, 160790
830, 160791
58, 160792
413, 160793
888, 160794
560, 160795
719, 160796
544, 160797
582, 160798
457, 160799
87, 160800
